30
-51   -8
 12   57
 73   82
-63   52
-65  -27
 38  -68
-32   90
 96  -23
-64   14
 27  -95
 95  -18
 16  -69
-12   18
-75    1
-25  -56
 93  -19
 21  -96
 64  -100
 35  -61
 -2   59
 23   34
 36   25
-67  -39
-49   75
 51   70
 32  -59
  5   87
-55   24
-42   41
 15   57